NAME 
ROWS
 N  OBJ
 L  R0      
 L  R1      
 E  R2      
 E  R3      
 E  R4      
 E  R5      
 E  R6      
 E  R7      
 E  R8      
 E  R9      
 E  R10     
 E  R11     
 E  R12     
 E  R13     
 E  R14     
 E  R15     
 E  R16     
COLUMNS
    MARKER    'MARKER'                 'INTORG'
    I0(7)     OBJ       14
    I0(7)     R0        -156
    I0(7)     R1        40
    I0(7)     R2        10
    I0(7)     R4        -1
    I0(7)     R6        9
    I0(7)     R9        3
    I0(7)     R16       1
    I1(11)    OBJ       84
    I1(11)    R0        -189
    I1(11)    R1        110
    I1(11)    R2        6
    I1(11)    R3        19
    I1(11)    R5        13
    I1(11)    R6        8
    I1(11)    R7        14
    I1(11)    R8        -1
    I1(11)    R9        16
    I1(11)    R10       6
    I1(11)    R16       1
    I2(9)     OBJ       -44
    I2(9)     R0        -135
    I2(9)     R1        -179
    I2(9)     R3        1
    I2(9)     R4        16
    I2(9)     R7        12
    I2(9)     R8        8
    I2(9)     R9        13
    I2(9)     R10       8
    I2(9)     R16       1
    I3(9)     OBJ       -13
    I3(9)     R0        -125
    I3(9)     R1        77
    I3(9)     R3        6
    I3(9)     R4        11
    I3(9)     R5        8
    I3(9)     R7        14
    I3(9)     R8        -1
    I3(9)     R9        14
    I3(9)     R16       1
    I4(11)    OBJ       154
    I4(11)    R0        105
    I4(11)    R1        -176
    I4(11)    R3        19
    I4(11)    R4        10
    I4(11)    R5        15
    I4(11)    R6        19
    I4(11)    R7        18
    I4(11)    R8        9
    I4(11)    R9        1
    I4(11)    R10       4
    I4(11)    R16       1
    I5(10)    OBJ       146
    I5(10)    R0        50
    I5(10)    R1        147
    I5(10)    R2        11
    I5(10)    R3        10
    I5(10)    R4        17
    I5(10)    R5        8
    I5(10)    R6        10
    I5(10)    R7        17
    I5(10)    R10       15
    I5(10)    R16       1
    I6(9)     OBJ       -42
    I6(9)     R0        64
    I6(9)     R1        -151
    I6(9)     R2        18
    I6(9)     R3        10
    I6(9)     R5        5
    I6(9)     R7        -1
    I6(9)     R9        5
    I6(9)     R10       5
    I6(9)     R16       1
    I7(10)    OBJ       -155
    I7(10)    R0        156
    I7(10)    R1        108
    I7(10)    R3        10
    I7(10)    R4        5
    I7(10)    R6        19
    I7(10)    R7        13
    I7(10)    R8        13
    I7(10)    R9        2
    I7(10)    R10       16
    I7(10)    R16       1
    I8(11)    OBJ       179
    I8(11)    R0        -179
    I8(11)    R1        65
    I8(11)    R2        6
    I8(11)    R3        15
    I8(11)    R4        16
    I8(11)    R6        -1
    I8(11)    R7        5
    I8(11)    R8        1
    I8(11)    R9        14
    I8(11)    R10       6
    I8(11)    R16       1
    MARKER    'MARKER'                 'INTEND'
    C9(14)    OBJ       5
    C9(14)    R0        7
    C9(14)    R1        -6
    C9(14)    R2        11
    C9(14)    R3        3
    C9(14)    R4        8
    C9(14)    R5        8
    C9(14)    R6        11
    C9(14)    R8        19
    C9(14)    R9        13
    C9(14)    R10       3
    C9(14)    R11       9
    C9(14)    R12       4
    C9(14)    R13       12
    C9(14)    R14       10
    C10(9)    OBJ       -6
    C10(9)    R0        -7
    C10(9)    R2        8
    C10(9)    R4        2
    C10(9)    R6        18
    C10(9)    R8        10
    C10(9)    R9        5
    C10(9)    R12       6
    C10(9)    R13       7
    C10(9)    R15       4
    C11(14)   OBJ       -6
    C11(14)   R0        -9
    C11(14)   R1        -1
    C11(14)   R2        16
    C11(14)   R4        15
    C11(14)   R5        3
    C11(14)   R7        9
    C11(14)   R8        8
    C11(14)   R9        11
    C11(14)   R10       3
    C11(14)   R11       11
    C11(14)   R12       11
    C11(14)   R13       6
    C11(14)   R14       11
    C11(14)   R15       7
    C12(14)   OBJ       -3
    C12(14)   R0        -10
    C12(14)   R1        2
    C12(14)   R2        3
    C12(14)   R4        4
    C12(14)   R5        10
    C12(14)   R6        3
    C12(14)   R7        7
    C12(14)   R8        9
    C12(14)   R9        14
    C12(14)   R10       3
    C12(14)   R11       15
    C12(14)   R13       18
    C12(14)   R14       11
    C12(14)   R15       7
    C13(13)   OBJ       2
    C13(13)   R0        7
    C13(13)   R1        6
    C13(13)   R3        7
    C13(13)   R5        18
    C13(13)   R6        11
    C13(13)   R7        2
    C13(13)   R8        11
    C13(13)   R9        10
    C13(13)   R11       17
    C13(13)   R12       4
    C13(13)   R13       -1
    C13(13)   R14       10
    C13(13)   R15       9
    C14(13)   OBJ       3
    C14(13)   R0        -4
    C14(13)   R1        -5
    C14(13)   R2        2
    C14(13)   R3        8
    C14(13)   R5        5
    C14(13)   R6        12
    C14(13)   R7        6
    C14(13)   R8        14
    C14(13)   R9        2
    C14(13)   R10       19
    C14(13)   R11       13
    C14(13)   R14       11
    C14(13)   R15       12
    C15(1)    R2        1
    C16(1)    R3        1
    C17(1)    R4        1
    C18(1)    R5        1
    C19(1)    R6        1
    C20(1)    R7        1
    C21(1)    R8        1
    C22(1)    R9        1
    C23(1)    R10       1
    C24(1)    R11       1
    C25(1)    R12       1
    C26(1)    R13       1
    C27(1)    R14       1
    C28(1)    R15       1
    C29(1)    R16       1
RHS
    RHS1      R0        3.4959349593495929e+01
    RHS1      R1        -216.260162601626
    RHS1      R2        51
    RHS1      R3        75
    RHS1      R4        69
    RHS1      R5        70
    RHS1      R6        86
    RHS1      R7        54
    RHS1      R8        82
    RHS1      R9        88
    RHS1      R10       63
    RHS1      R11       92
    RHS1      R12       98
    RHS1      R13       73
    RHS1      R14       95
    RHS1      R15       96
    RHS1      R16       3
BOUNDS
 UP BND1      I0(7)     1
 UP BND1      I1(11)    1
 UP BND1      I2(9)     1
 UP BND1      I3(9)     1
 UP BND1      I4(11)    1
 UP BND1      I5(10)    1
 UP BND1      I6(9)     1
 UP BND1      I7(10)    1
 UP BND1      I8(11)    1
ENDATA
